% Auto-generated by scripts/generate_dzn.py
% problem_type   = regex
% instance       = regex_53
% source_json    = instances_json/2_high_blowup/regex_53.json
% blowup         = 37.214285714285715
% representation = DFA

mode = 0;

var_count = 38;
Q = 521;
S = 3;
q0 = 1;
F = {323, 324, 325, 326, 327, 328, 329, 330, 331, 332, 333, 334, 335, 336, 337, 338, 339, 340, 341, 342, 343, 344, 345, 346, 347, 348, 349, 350, 351, 352, 353, 354, 355, 356, 357, 358, 359, 360, 361, 362, 363, 364, 365, 366, 367, 368, 369, 370, 371, 372, 373, 374, 375, 376, 377, 378, 379, 380, 381, 382, 383, 384, 385, 386, 387, 388, 389, 390, 391, 392, 393, 394, 395, 396, 397, 398, 399, 400, 401, 402, 403, 404, 405, 406, 407, 408, 409, 410, 411, 412, 413, 414, 415, 416, 417, 418, 419, 420, 421, 422, 423, 424, 425, 426, 427, 428, 429, 430, 431, 432, 433, 434, 435, 436, 437, 438, 439, 440, 441, 442, 443, 444, 445, 446, 447, 448, 449, 450, 451, 452, 453, 454, 455, 456, 457, 458, 459, 460, 461, 462, 463, 464, 465, 466, 467, 468, 469, 470, 471, 472, 473, 474, 475, 476, 477, 478, 479, 480, 481, 482, 483, 484, 485, 486, 487, 488, 489, 490, 491, 492, 493, 494, 495, 496, 497, 498, 499, 500, 501, 502, 503, 504, 505, 506, 507, 508, 509, 510, 511, 512, 513, 514, 515, 516, 517, 518, 519, 520, 521};
d_dfa = array2d(1..521, 1..3, [
  1, 1, 2,
  1, 3, 2,
  1, 1, 4,
  7, 6, 5,
  10, 9, 8,
  10, 10, 11,
  10, 10, 8,
  14, 13, 12,
  14, 14, 15,
  14, 14, 12,
  18, 17, 16,
  21, 20, 19,
  21, 21, 22,
  21, 21, 19,
  25, 24, 23,
  28, 27, 26,
  28, 28, 29,
  28, 28, 26,
  32, 31, 30,
  32, 32, 33,
  32, 32, 30,
  36, 35, 34,
  39, 38, 37,
  39, 39, 40,
  39, 39, 37,
  43, 42, 41,
  43, 43, 44,
  43, 43, 41,
  47, 46, 45,
  50, 49, 48,
  50, 50, 51,
  50, 50, 48,
  54, 53, 52,
  57, 56, 55,
  57, 57, 58,
  57, 57, 55,
  61, 60, 59,
  61, 61, 62,
  61, 61, 59,
  65, 64, 63,
  68, 67, 66,
  68, 68, 69,
  68, 68, 66,
  72, 71, 70,
  75, 74, 73,
  75, 75, 76,
  75, 75, 73,
  79, 78, 77,
  79, 79, 80,
  79, 79, 77,
  83, 82, 81,
  86, 85, 84,
  86, 86, 87,
  86, 86, 84,
  90, 89, 88,
  90, 90, 91,
  90, 90, 88,
  94, 93, 92,
  97, 96, 95,
  97, 97, 98,
  97, 97, 95,
  101, 100, 99,
  104, 103, 102,
  104, 104, 105,
  104, 104, 102,
  108, 107, 106,
  108, 108, 109,
  108, 108, 106,
  112, 111, 110,
  115, 114, 113,
  115, 115, 116,
  115, 115, 113,
  119, 118, 117,
  119, 119, 120,
  119, 119, 117,
  123, 122, 121,
  126, 125, 124,
  126, 126, 127,
  126, 126, 124,
  130, 129, 128,
  133, 132, 131,
  133, 133, 134,
  133, 133, 131,
  137, 136, 135,
  137, 137, 138,
  137, 137, 135,
  141, 140, 139,
  144, 143, 142,
  144, 144, 145,
  144, 144, 142,
  148, 147, 146,
  151, 150, 149,
  151, 151, 152,
  151, 151, 149,
  155, 154, 153,
  155, 155, 156,
  155, 155, 153,
  159, 158, 157,
  162, 161, 160,
  162, 162, 163,
  162, 162, 160,
  166, 165, 164,
  166, 166, 167,
  166, 166, 164,
  170, 169, 168,
  173, 172, 171,
  173, 173, 174,
  173, 173, 171,
  177, 176, 175,
  180, 179, 178,
  180, 180, 181,
  180, 180, 178,
  184, 183, 182,
  184, 184, 185,
  184, 184, 182,
  188, 187, 186,
  191, 190, 189,
  191, 191, 192,
  191, 191, 189,
  195, 194, 193,
  198, 197, 196,
  198, 198, 199,
  198, 198, 196,
  202, 201, 200,
  202, 202, 203,
  202, 202, 200,
  206, 205, 204,
  209, 208, 207,
  209, 209, 210,
  209, 209, 207,
  213, 212, 211,
  213, 213, 214,
  213, 213, 211,
  217, 216, 215,
  220, 219, 218,
  220, 220, 221,
  220, 220, 218,
  224, 223, 222,
  227, 226, 225,
  227, 227, 228,
  227, 227, 225,
  231, 230, 229,
  231, 231, 232,
  231, 231, 229,
  235, 234, 233,
  238, 237, 236,
  238, 238, 239,
  238, 238, 236,
  242, 241, 240,
  242, 242, 243,
  242, 242, 240,
  246, 245, 244,
  249, 248, 247,
  249, 249, 250,
  249, 249, 247,
  253, 252, 251,
  256, 255, 254,
  256, 256, 257,
  256, 256, 254,
  260, 259, 258,
  260, 260, 261,
  260, 260, 258,
  264, 263, 262,
  267, 266, 265,
  267, 267, 268,
  267, 267, 265,
  271, 270, 269,
  274, 273, 272,
  274, 274, 275,
  274, 274, 272,
  278, 277, 276,
  278, 278, 279,
  278, 278, 276,
  282, 281, 280,
  285, 284, 283,
  285, 285, 286,
  285, 285, 283,
  289, 288, 287,
  289, 289, 290,
  289, 289, 287,
  293, 292, 291,
  296, 295, 294,
  296, 296, 297,
  296, 296, 294,
  300, 299, 298,
  303, 302, 301,
  303, 303, 304,
  303, 303, 301,
  307, 306, 305,
  307, 307, 308,
  307, 307, 305,
  311, 310, 309,
  314, 313, 312,
  314, 314, 315,
  314, 314, 312,
  318, 317, 316,
  318, 318, 319,
  318, 318, 316,
  322, 321, 320,
  325, 324, 323,
  325, 325, 326,
  325, 325, 323,
  329, 328, 327,
  332, 331, 330,
  332, 332, 333,
  332, 332, 330,
  336, 335, 334,
  336, 336, 337,
  336, 336, 334,
  340, 339, 338,
  343, 342, 341,
  343, 343, 344,
  343, 343, 341,
  347, 346, 345,
  350, 349, 348,
  350, 350, 351,
  350, 350, 348,
  354, 353, 352,
  354, 354, 355,
  354, 354, 352,
  358, 357, 356,
  361, 360, 359,
  361, 361, 362,
  361, 361, 359,
  365, 364, 363,
  365, 365, 366,
  365, 365, 363,
  369, 368, 367,
  372, 371, 370,
  372, 372, 373,
  372, 372, 370,
  376, 375, 374,
  379, 378, 377,
  379, 379, 380,
  379, 379, 377,
  383, 382, 381,
  383, 383, 384,
  383, 383, 381,
  387, 386, 385,
  390, 389, 388,
  390, 390, 391,
  390, 390, 388,
  394, 393, 392,
  397, 396, 395,
  397, 397, 398,
  397, 397, 395,
  401, 400, 399,
  401, 401, 402,
  401, 401, 399,
  405, 404, 403,
  408, 407, 406,
  408, 408, 409,
  408, 408, 406,
  412, 411, 410,
  412, 412, 413,
  412, 412, 410,
  416, 415, 414,
  419, 418, 417,
  419, 419, 420,
  419, 419, 417,
  423, 422, 421,
  426, 425, 424,
  426, 426, 427,
  426, 426, 424,
  430, 429, 428,
  430, 430, 431,
  430, 430, 428,
  434, 433, 432,
  437, 436, 435,
  437, 437, 438,
  437, 437, 435,
  441, 440, 439,
  441, 441, 442,
  441, 441, 439,
  445, 444, 443,
  448, 447, 446,
  448, 448, 449,
  448, 448, 446,
  452, 451, 450,
  455, 454, 453,
  455, 455, 456,
  455, 455, 453,
  459, 458, 457,
  459, 459, 460,
  459, 459, 457,
  463, 462, 461,
  466, 465, 464,
  466, 466, 467,
  466, 466, 464,
  470, 469, 468,
  473, 472, 471,
  473, 473, 474,
  473, 473, 471,
  477, 476, 475,
  477, 477, 478,
  477, 477, 475,
  481, 480, 479,
  484, 483, 482,
  484, 484, 485,
  484, 484, 482,
  488, 487, 486,
  488, 488, 489,
  488, 488, 486,
  492, 491, 490,
  495, 494, 493,
  495, 495, 496,
  495, 495, 493,
  499, 498, 497,
  502, 501, 500,
  502, 502, 503,
  502, 502, 500,
  506, 505, 504,
  506, 506, 507,
  506, 506, 504,
  510, 509, 508,
  513, 512, 511,
  513, 513, 514,
  513, 513, 511,
  517, 516, 515,
  520, 519, 518,
  520, 520, 521,
  520, 520, 518,
  1, 3, 2,
  1, 1, 4,
  1, 1, 2,
  7, 6, 5,
  10, 9, 8,
  10, 10, 11,
  10, 10, 8,
  14, 13, 12,
  14, 14, 15,
  14, 14, 12,
  18, 17, 16,
  21, 20, 19,
  21, 21, 22,
  21, 21, 19,
  25, 24, 23,
  28, 27, 26,
  28, 28, 29,
  28, 28, 26,
  32, 31, 30,
  32, 32, 33,
  32, 32, 30,
  36, 35, 34,
  39, 38, 37,
  39, 39, 40,
  39, 39, 37,
  43, 42, 41,
  43, 43, 44,
  43, 43, 41,
  47, 46, 45,
  50, 49, 48,
  50, 50, 51,
  50, 50, 48,
  54, 53, 52,
  57, 56, 55,
  57, 57, 58,
  57, 57, 55,
  61, 60, 59,
  61, 61, 62,
  61, 61, 59,
  65, 64, 63,
  68, 67, 66,
  68, 68, 69,
  68, 68, 66,
  72, 71, 70,
  75, 74, 73,
  75, 75, 76,
  75, 75, 73,
  79, 78, 77,
  79, 79, 80,
  79, 79, 77,
  83, 82, 81,
  86, 85, 84,
  86, 86, 87,
  86, 86, 84,
  90, 89, 88,
  90, 90, 91,
  90, 90, 88,
  94, 93, 92,
  97, 96, 95,
  97, 97, 98,
  97, 97, 95,
  101, 100, 99,
  104, 103, 102,
  104, 104, 105,
  104, 104, 102,
  108, 107, 106,
  108, 108, 109,
  108, 108, 106,
  112, 111, 110,
  115, 114, 113,
  115, 115, 116,
  115, 115, 113,
  119, 118, 117,
  119, 119, 120,
  119, 119, 117,
  123, 122, 121,
  126, 125, 124,
  126, 126, 127,
  126, 126, 124,
  130, 129, 128,
  133, 132, 131,
  133, 133, 134,
  133, 133, 131,
  137, 136, 135,
  137, 137, 138,
  137, 137, 135,
  141, 140, 139,
  144, 143, 142,
  144, 144, 145,
  144, 144, 142,
  148, 147, 146,
  151, 150, 149,
  151, 151, 152,
  151, 151, 149,
  155, 154, 153,
  155, 155, 156,
  155, 155, 153,
  159, 158, 157,
  162, 161, 160,
  162, 162, 163,
  162, 162, 160,
  166, 165, 164,
  166, 166, 167,
  166, 166, 164,
  170, 169, 168,
  173, 172, 171,
  173, 173, 174,
  173, 173, 171,
  177, 176, 175,
  180, 179, 178,
  180, 180, 181,
  180, 180, 178,
  184, 183, 182,
  184, 184, 185,
  184, 184, 182,
  188, 187, 186,
  191, 190, 189,
  191, 191, 192,
  191, 191, 189,
  195, 194, 193,
  198, 197, 196,
  198, 198, 199,
  198, 198, 196,
  202, 201, 200,
  202, 202, 203,
  202, 202, 200,
  206, 205, 204,
  209, 208, 207,
  209, 209, 210,
  209, 209, 207,
  213, 212, 211,
  213, 213, 214,
  213, 213, 211,
  217, 216, 215,
  220, 219, 218,
  220, 220, 221,
  220, 220, 218,
  224, 223, 222,
  227, 226, 225,
  227, 227, 228,
  227, 227, 225,
  231, 230, 229,
  231, 231, 232,
  231, 231, 229,
  235, 234, 233,
  238, 237, 236,
  238, 238, 239,
  238, 238, 236,
  242, 241, 240,
  242, 242, 243,
  242, 242, 240,
  246, 245, 244,
  249, 248, 247,
  249, 249, 250,
  249, 249, 247,
  253, 252, 251,
  256, 255, 254,
  256, 256, 257,
  256, 256, 254,
  260, 259, 258,
  260, 260, 261,
  260, 260, 258,
  264, 263, 262,
  267, 266, 265,
  267, 267, 268,
  267, 267, 265,
  271, 270, 269,
  274, 273, 272,
  274, 274, 275,
  274, 274, 272,
  278, 277, 276,
  278, 278, 279,
  278, 278, 276,
  282, 281, 280,
  285, 284, 283,
  285, 285, 286,
  285, 285, 283,
  289, 288, 287,
  289, 289, 290,
  289, 289, 287,
  293, 292, 291,
  296, 295, 294,
  296, 296, 297,
  296, 296, 294,
  300, 299, 298,
  303, 302, 301,
  303, 303, 304,
  303, 303, 301,
  307, 306, 305,
  307, 307, 308,
  307, 307, 305,
  311, 310, 309,
  314, 313, 312,
  314, 314, 315,
  314, 314, 312,
  318, 317, 316,
  318, 318, 319,
  318, 318, 316,
  322, 321, 320
]);
d_nfa = array2d(1..521, 1..3, [
  {}, {}, {},
  {}, {}, {},
  {}, {}, {},
  {}, {}, {},
  {}, {}, {},
  {}, {}, {},
  {}, {}, {},
  {}, {}, {},
  {}, {}, {},
  {}, {}, {},
  {}, {}, {},
  {}, {}, {},
  {}, {}, {},
  {}, {}, {},
  {}, {}, {},
  {}, {}, {},
  {}, {}, {},
  {}, {}, {},
  {}, {}, {},
  {}, {}, {},
  {}, {}, {},
  {}, {}, {},
  {}, {}, {},
  {}, {}, {},
  {}, {}, {},
  {}, {}, {},
  {}, {}, {},
  {}, {}, {},
  {}, {}, {},
  {}, {}, {},
  {}, {}, {},
  {}, {}, {},
  {}, {}, {},
  {}, {}, {},
  {}, {}, {},
  {}, {}, {},
  {}, {}, {},
  {}, {}, {},
  {}, {}, {},
  {}, {}, {},
  {}, {}, {},
  {}, {}, {},
  {}, {}, {},
  {}, {}, {},
  {}, {}, {},
  {}, {}, {},
  {}, {}, {},
  {}, {}, {},
  {}, {}, {},
  {}, {}, {},
  {}, {}, {},
  {}, {}, {},
  {}, {}, {},
  {}, {}, {},
  {}, {}, {},
  {}, {}, {},
  {}, {}, {},
  {}, {}, {},
  {}, {}, {},
  {}, {}, {},
  {}, {}, {},
  {}, {}, {},
  {}, {}, {},
  {}, {}, {},
  {}, {}, {},
  {}, {}, {},
  {}, {}, {},
  {}, {}, {},
  {}, {}, {},
  {}, {}, {},
  {}, {}, {},
  {}, {}, {},
  {}, {}, {},
  {}, {}, {},
  {}, {}, {},
  {}, {}, {},
  {}, {}, {},
  {}, {}, {},
  {}, {}, {},
  {}, {}, {},
  {}, {}, {},
  {}, {}, {},
  {}, {}, {},
  {}, {}, {},
  {}, {}, {},
  {}, {}, {},
  {}, {}, {},
  {}, {}, {},
  {}, {}, {},
  {}, {}, {},
  {}, {}, {},
  {}, {}, {},
  {}, {}, {},
  {}, {}, {},
  {}, {}, {},
  {}, {}, {},
  {}, {}, {},
  {}, {}, {},
  {}, {}, {},
  {}, {}, {},
  {}, {}, {},
  {}, {}, {},
  {}, {}, {},
  {}, {}, {},
  {}, {}, {},
  {}, {}, {},
  {}, {}, {},
  {}, {}, {},
  {}, {}, {},
  {}, {}, {},
  {}, {}, {},
  {}, {}, {},
  {}, {}, {},
  {}, {}, {},
  {}, {}, {},
  {}, {}, {},
  {}, {}, {},
  {}, {}, {},
  {}, {}, {},
  {}, {}, {},
  {}, {}, {},
  {}, {}, {},
  {}, {}, {},
  {}, {}, {},
  {}, {}, {},
  {}, {}, {},
  {}, {}, {},
  {}, {}, {},
  {}, {}, {},
  {}, {}, {},
  {}, {}, {},
  {}, {}, {},
  {}, {}, {},
  {}, {}, {},
  {}, {}, {},
  {}, {}, {},
  {}, {}, {},
  {}, {}, {},
  {}, {}, {},
  {}, {}, {},
  {}, {}, {},
  {}, {}, {},
  {}, {}, {},
  {}, {}, {},
  {}, {}, {},
  {}, {}, {},
  {}, {}, {},
  {}, {}, {},
  {}, {}, {},
  {}, {}, {},
  {}, {}, {},
  {}, {}, {},
  {}, {}, {},
  {}, {}, {},
  {}, {}, {},
  {}, {}, {},
  {}, {}, {},
  {}, {}, {},
  {}, {}, {},
  {}, {}, {},
  {}, {}, {},
  {}, {}, {},
  {}, {}, {},
  {}, {}, {},
  {}, {}, {},
  {}, {}, {},
  {}, {}, {},
  {}, {}, {},
  {}, {}, {},
  {}, {}, {},
  {}, {}, {},
  {}, {}, {},
  {}, {}, {},
  {}, {}, {},
  {}, {}, {},
  {}, {}, {},
  {}, {}, {},
  {}, {}, {},
  {}, {}, {},
  {}, {}, {},
  {}, {}, {},
  {}, {}, {},
  {}, {}, {},
  {}, {}, {},
  {}, {}, {},
  {}, {}, {},
  {}, {}, {},
  {}, {}, {},
  {}, {}, {},
  {}, {}, {},
  {}, {}, {},
  {}, {}, {},
  {}, {}, {},
  {}, {}, {},
  {}, {}, {},
  {}, {}, {},
  {}, {}, {},
  {}, {}, {},
  {}, {}, {},
  {}, {}, {},
  {}, {}, {},
  {}, {}, {},
  {}, {}, {},
  {}, {}, {},
  {}, {}, {},
  {}, {}, {},
  {}, {}, {},
  {}, {}, {},
  {}, {}, {},
  {}, {}, {},
  {}, {}, {},
  {}, {}, {},
  {}, {}, {},
  {}, {}, {},
  {}, {}, {},
  {}, {}, {},
  {}, {}, {},
  {}, {}, {},
  {}, {}, {},
  {}, {}, {},
  {}, {}, {},
  {}, {}, {},
  {}, {}, {},
  {}, {}, {},
  {}, {}, {},
  {}, {}, {},
  {}, {}, {},
  {}, {}, {},
  {}, {}, {},
  {}, {}, {},
  {}, {}, {},
  {}, {}, {},
  {}, {}, {},
  {}, {}, {},
  {}, {}, {},
  {}, {}, {},
  {}, {}, {},
  {}, {}, {},
  {}, {}, {},
  {}, {}, {},
  {}, {}, {},
  {}, {}, {},
  {}, {}, {},
  {}, {}, {},
  {}, {}, {},
  {}, {}, {},
  {}, {}, {},
  {}, {}, {},
  {}, {}, {},
  {}, {}, {},
  {}, {}, {},
  {}, {}, {},
  {}, {}, {},
  {}, {}, {},
  {}, {}, {},
  {}, {}, {},
  {}, {}, {},
  {}, {}, {},
  {}, {}, {},
  {}, {}, {},
  {}, {}, {},
  {}, {}, {},
  {}, {}, {},
  {}, {}, {},
  {}, {}, {},
  {}, {}, {},
  {}, {}, {},
  {}, {}, {},
  {}, {}, {},
  {}, {}, {},
  {}, {}, {},
  {}, {}, {},
  {}, {}, {},
  {}, {}, {},
  {}, {}, {},
  {}, {}, {},
  {}, {}, {},
  {}, {}, {},
  {}, {}, {},
  {}, {}, {},
  {}, {}, {},
  {}, {}, {},
  {}, {}, {},
  {}, {}, {},
  {}, {}, {},
  {}, {}, {},
  {}, {}, {},
  {}, {}, {},
  {}, {}, {},
  {}, {}, {},
  {}, {}, {},
  {}, {}, {},
  {}, {}, {},
  {}, {}, {},
  {}, {}, {},
  {}, {}, {},
  {}, {}, {},
  {}, {}, {},
  {}, {}, {},
  {}, {}, {},
  {}, {}, {},
  {}, {}, {},
  {}, {}, {},
  {}, {}, {},
  {}, {}, {},
  {}, {}, {},
  {}, {}, {},
  {}, {}, {},
  {}, {}, {},
  {}, {}, {},
  {}, {}, {},
  {}, {}, {},
  {}, {}, {},
  {}, {}, {},
  {}, {}, {},
  {}, {}, {},
  {}, {}, {},
  {}, {}, {},
  {}, {}, {},
  {}, {}, {},
  {}, {}, {},
  {}, {}, {},
  {}, {}, {},
  {}, {}, {},
  {}, {}, {},
  {}, {}, {},
  {}, {}, {},
  {}, {}, {},
  {}, {}, {},
  {}, {}, {},
  {}, {}, {},
  {}, {}, {},
  {}, {}, {},
  {}, {}, {},
  {}, {}, {},
  {}, {}, {},
  {}, {}, {},
  {}, {}, {},
  {}, {}, {},
  {}, {}, {},
  {}, {}, {},
  {}, {}, {},
  {}, {}, {},
  {}, {}, {},
  {}, {}, {},
  {}, {}, {},
  {}, {}, {},
  {}, {}, {},
  {}, {}, {},
  {}, {}, {},
  {}, {}, {},
  {}, {}, {},
  {}, {}, {},
  {}, {}, {},
  {}, {}, {},
  {}, {}, {},
  {}, {}, {},
  {}, {}, {},
  {}, {}, {},
  {}, {}, {},
  {}, {}, {},
  {}, {}, {},
  {}, {}, {},
  {}, {}, {},
  {}, {}, {},
  {}, {}, {},
  {}, {}, {},
  {}, {}, {},
  {}, {}, {},
  {}, {}, {},
  {}, {}, {},
  {}, {}, {},
  {}, {}, {},
  {}, {}, {},
  {}, {}, {},
  {}, {}, {},
  {}, {}, {},
  {}, {}, {},
  {}, {}, {},
  {}, {}, {},
  {}, {}, {},
  {}, {}, {},
  {}, {}, {},
  {}, {}, {},
  {}, {}, {},
  {}, {}, {},
  {}, {}, {},
  {}, {}, {},
  {}, {}, {},
  {}, {}, {},
  {}, {}, {},
  {}, {}, {},
  {}, {}, {},
  {}, {}, {},
  {}, {}, {},
  {}, {}, {},
  {}, {}, {},
  {}, {}, {},
  {}, {}, {},
  {}, {}, {},
  {}, {}, {},
  {}, {}, {},
  {}, {}, {},
  {}, {}, {},
  {}, {}, {},
  {}, {}, {},
  {}, {}, {},
  {}, {}, {},
  {}, {}, {},
  {}, {}, {},
  {}, {}, {},
  {}, {}, {},
  {}, {}, {},
  {}, {}, {},
  {}, {}, {},
  {}, {}, {},
  {}, {}, {},
  {}, {}, {},
  {}, {}, {},
  {}, {}, {},
  {}, {}, {},
  {}, {}, {},
  {}, {}, {},
  {}, {}, {},
  {}, {}, {},
  {}, {}, {},
  {}, {}, {},
  {}, {}, {},
  {}, {}, {},
  {}, {}, {},
  {}, {}, {},
  {}, {}, {},
  {}, {}, {},
  {}, {}, {},
  {}, {}, {},
  {}, {}, {},
  {}, {}, {},
  {}, {}, {},
  {}, {}, {},
  {}, {}, {},
  {}, {}, {},
  {}, {}, {},
  {}, {}, {},
  {}, {}, {},
  {}, {}, {},
  {}, {}, {},
  {}, {}, {},
  {}, {}, {},
  {}, {}, {},
  {}, {}, {},
  {}, {}, {},
  {}, {}, {},
  {}, {}, {},
  {}, {}, {},
  {}, {}, {},
  {}, {}, {},
  {}, {}, {},
  {}, {}, {},
  {}, {}, {},
  {}, {}, {},
  {}, {}, {},
  {}, {}, {},
  {}, {}, {},
  {}, {}, {},
  {}, {}, {},
  {}, {}, {},
  {}, {}, {},
  {}, {}, {},
  {}, {}, {},
  {}, {}, {},
  {}, {}, {},
  {}, {}, {},
  {}, {}, {},
  {}, {}, {},
  {}, {}, {},
  {}, {}, {},
  {}, {}, {},
  {}, {}, {},
  {}, {}, {},
  {}, {}, {},
  {}, {}, {},
  {}, {}, {},
  {}, {}, {},
  {}, {}, {},
  {}, {}, {},
  {}, {}, {},
  {}, {}, {},
  {}, {}, {},
  {}, {}, {},
  {}, {}, {},
  {}, {}, {},
  {}, {}, {},
  {}, {}, {},
  {}, {}, {},
  {}, {}, {},
  {}, {}, {},
  {}, {}, {},
  {}, {}, {},
  {}, {}, {},
  {}, {}, {},
  {}, {}, {},
  {}, {}, {},
  {}, {}, {},
  {}, {}, {},
  {}, {}, {},
  {}, {}, {},
  {}, {}, {},
  {}, {}, {},
  {}, {}, {},
  {}, {}, {},
  {}, {}, {},
  {}, {}, {},
  {}, {}, {},
  {}, {}, {},
  {}, {}, {},
  {}, {}, {},
  {}, {}, {},
  {}, {}, {},
  {}, {}, {},
  {}, {}, {},
  {}, {}, {}
]);
